letting maxWeight=66
letting values=[45, 2, 39, 29, 35, 22, 6, 25, 18, 30, 17, 8, 38, 40, 6, 4, 2, 9, 4, 22, 18, 4, 25, 46, 5, 43, 2, 25, 12, 14, 14, 6, 45, 28, 19, 6, 16, 7, 34, 21, 1, 41, 38, 19, 6, 20, 37, 17, 17, 11, 33, 8, 8, 24, 18, 18, 46, 33, 41, 14, 1, 22, 39, 16, 21, 20, 17, 18, 19, 17, 2, 16, 24]
letting weights=[12, 20, 22, 15, 13, 28, 4, 22, 26, 19, 23, 6, 16, 29, 14, 17, 4, 24, 31, 8, 10, 20, 14, 1, 28, 14, 25, 7, 9, 11, 12, 9, 6, 12, 1, 26, 17, 28, 31, 26, 13, 14, 18, 13, 25, 17, 5, 12, 25, 30, 5, 6, 23, 10, 1, 28, 3, 26, 7, 29, 30, 10, 18, 10, 23, 25, 14, 8, 10, 18, 24, 15, 20]
